80
0 56 62 50 1 41 6 18 67 17 
33 22 21 43 59 44 15 38 12 39 
37 13 30 42 20 32 71 58 27 48 
49 2 79 28 66 76 29 25 8 36 
69 10 74 24 77 7 53 46 65 5 
26 57 9 72 51 35 78 23 40 47 
45 4 60 61 19 54 34 52 63 3 
64 11 55 75 73 14 16 31 70 68 
